151	32	4	115	
10	10	10	10

0	0	0	0	0	0	1	1
1	1	1	0	1	9	2	6	2
2	5	4	1	0	3	1	3
3	4	6	0	5	1	2	21	4
4	2	3	0	3	5	1	5
5	4	0	3	3	5	1	7
6	7	0	6	4	6	1	7
7	4	7	5	0	7	1	8
8	5	5	0	4	3	1	9
9	0	1	6	5	5	1	10
10	5	4	2	0	9	1	11
11	3	8	5	0	3	1	12
12	4	0	2	3	1	1	13
13	0	5	2	5	1	2	17	14
14	3	0	3	5	5	1	15
15	4	2	0	4	1	2	18	16
16	4	4	3	0	5	2	30	19
17	2	5	10	0	4	2	30	20
18	0	4	4	3	7	2	30	22
19	0	4	4	3	5	1	20
20	3	3	0	4	8	1	22
21	5	0	3	1	10	2	30	24
22	8	7	5	0	7	1	23
23	0	5	5	5	4	1	24
24	0	5	5	9	2	2	29	25
25	4	3	0	2	6	1	26
26	5	0	5	4	3	1	27
27	2	1	0	4	7	1	28
28	0	3	2	3	3	1	31
29	0	4	5	5	6	1	31
30	0	2	2	7	10	1	31
31	0	0	0	0	0	0
